sing20160620.12
TTAA 70121 48698
99005 30859 28004 00066 30058 29505 92757 23228 24510
85491 18225 25519 70137 10650 25513 50586 05550 22515
40758 14357 12519 30969 30757 11013 25096 40556 09035
20244 53350 06545 15423 68549 07070 10656 80360 08056
88116 79556 05580
77116 05580=
TTCC 70127 48698
70864 74765 10514 50064 ///// /////
88798 75164 34005
77999=
TTDD 7012/ 48698
11958 73764 22919 71368 33798 75164 44729 72967 55688
75565 66634 69971 77562 72569 88538 67373
21212 11956 08025 22936 08010 33911 08002 44786 35010
55772 35013 66732 07010 77716 09510 88710 10011 99673
11528 11633 08525 22588 08046 33569 08551 44538 11047=
